data/benchmarks/bayes/75-10-9-q.cnf
p cnf 460 461
c weights 0.230599 0.769401 1 1 1 1 1 1 1 1 1 1 1 1 1 1 1 1 1 1 1 1 1 1 1 1 1 1 1 1 1 1 1 1 1 1 1 1 1 1 1 1 1 1 1 1 1 1 1 1 1 1 1 1 1 1 1 1 1 1 1 1 1 1 1 1 1 1 1 1 1 1 1 1 1 1 1 1 1 1 1 1 1 1 1 1 1 1 1 1 1 1 1 1 1 1 1 1 1 1 1 1 1 1 1 1 1 1 1 1 1 1 1 1 1 1 1 1 1 1 1 1 1 1 1 1 1 1 1 1 1 1 1 1 1 1 1 1 1 1 1 1 1 1 1 1 1 1 1 1 1 1 1 1 1 1 1 1 1 1 1 1 1 1 1 1 1 1 1 1 1 1 1 1 1 1 1 1 1 1 1 1 1 1 1 1 1 1 1 1 1 1 1 1 1 1 1 1 1 1 0.876456 0.12354399999999999 0.990734 0.009265999999999996 0.5 0.5 0.5 0.5 0.5 0.5 0.5 0.5 0.498531 0.5014689999999999 0.135465 0.864535 0.0620633 0.9379367 0.89814 0.10185999999999995 0.5 0.5 0.5 0.5 0.5 0.5 0.5 0.5 0.255626 0.744374 0.958215 0.04178499999999996 0.5 0.5 0.5 0.5 0.5 0.5 0.5 0.5 0.470952 0.529048 0.661312 0.338688 0.631644 0.368356 0.0711858 0.9288142 0.862243 0.13775700000000002 0.838046 0.16195400000000004 0.627586 0.372414 0.852978 0.14702199999999999 0.5 0.5 0.5 0.5 0.5 0.5 0.5 0.5 0.5 0.5 0.5 0.5 0.5 0.5 0.5 0.5 0.5 0.5 0.5 0.5 0.5 0.5 0.5 0.5 0.5 0.5 0.5 0.5 0.5 0.5 0.5 0.5 0.5 0.5 0.5 0.5 0.5 0.5 0.5 0.5 0.53307 0.46692999999999996 0.394492 0.6055079999999999 0.824715 0.17528500000000002 0.160656 0.839344 0.5 0.5 0.5 0.5 0.5 0.5 0.5 0.5 0.5 0.5 0.5 0.5 0.916623 0.08337700000000003 0.0757746 0.9242254 0.0222502 0.9777498 0.403052 0.596948 0.5 0.5 0.5 0.5 0.5 0.5 0.5 0.5 0.169063 0.830937 0.537045 0.462955 0.108484 0.891516 0.0696675 0.9303325 0.5 0.5 0.5 0.5 0.5 0.5 0.5 0.5 0.263912 0.7360880000000001 0.58415 0.41585000000000005 0.243878 0.756122 0.398979 0.601021 0.5 0.5 0.5 0.5 0.5 0.5 0.5 0.5 0.5 0.5 0.5 0.5 0.5 0.5 0.5 0.5 0.5 0.5 0.5 0.5 0.5 0.5 0.5 0.5 0.5 0.5 0.5 0.5 0.5 0.5 0.5 0.5 0.5 0.5 0.5 0.5 0.994618 0.005381999999999998 0.434683 0.5653170000000001 0.225446 0.774554 0.991026 0.008974000000000038 0.5 0.5 0.5 0.5 0.5 0.5 0.5 0.5 0.5 0.5 0.5 0.5 0.5 0.5 0.5 0.5 0.5 0.5 0.5 0.5 0.5 0.5 0.5 0.5 0.993715 0.006284999999999985 0.189881 0.810119 0.0303763 0.9696237 0.999629 0.0003710000000000102 0.35341 0.64659 0.542588 0.45741200000000004 0.904456 0.09554399999999996 0.746112 0.253888 0.5 0.5 0.5 0.5 0.5 0.5 0.5 0.5 0.5 0.5 0.5 0.5 0.5 0.5 0.5 0.5 0.5 0.5 0.5 0.5 0.5 0.5 0.5 0.5 0.5 0.5 0.5 0.5 0.5 0.5 0.5 0.5 0.5 0.5 0.5 0.5 0.5 0.5 0.5 0.5 0.5 0.5 0.5 0.5 0.5 0.5 0.5 0.5 0.5 0.5 0.5 0.5 0.103323 0.896677 0.314419 0.685581 0.718638 0.281362 0.774677 0.22532300000000005 0.5 0.5 0.5 0.5 0.5 0.5 0.5 0.5 0.0856675 0.9143325 0.254783 0.745217 0.324175 0.675825 0.0619118 0.9380882 0.5 0.5 0.5 0.5 0.5 0.5 0.5 0.5 0.5 0.5 0.5 0.5 0.5 0.5 0.5 0.5 0.5 0.5 0.5 0.5 0.5 0.5 0.5 0.5 0.5 0.5 0.5 0.5 0.5 0.5 0.5 0.5 0.5 0.5 0.5 0.5 0.363313 0.636687 0.391975 0.608025 0.212135 0.787865 0.231345 0.768655 0.5 0.5 0.5 0.5 0.5 0.5 0.5 0.5 0.5 0.5 0.5 0.5 0.5 0.5 0.5 0.5 0.626725 0.373275 0.0454212 0.9545788 0.438781 0.561219 0.95367 0.04632999999999998 0.723288 0.27671199999999996 0.526767 0.473233 0.798271 0.20172900000000005 0.39036 0.60964 0.5 0.5 0.5 0.5 0.5 0.5 0.5 0.5 0.5 0.5 0.5 0.5 0.5 0.5 0.5 0.5 0.5 0.5 0.5 0.5 0.5 0.5 0.5 0.5 0.932732 0.067268 0.476409 0.5235909999999999 0.732552 0.267448 0.30318 0.69682 0.768439 0.23156100000000002 0.359277 0.6407229999999999 0.5 0.5 0.5 0.5 0.5 0.5 0.5 0.5 0.00343508 0.99656492 0.320868 0.6791320000000001 0.92646 0.07354000000000005 0.846737 0.15326300000000004 0.5 0.5 0.5 0.5 0.5 0.5 0.5 0.5 0.5 0.5 0.5 0.5 0.5 0.5 0.5 0.5 0.5 0.5 0.5 0.5 0.5 0.5 0.5 0.5 0.5 0.5 0.5 0.5 0.5 0.5 0.5 0.5 0.5 0.5 0.5 0.5 0.5 0.5 0.5 0.5 0.337125 0.662875 0.280113 0.7198869999999999 0.710607 0.289393 0.183862 0.816138 0.00242828 0.99757172 0.693608 0.306392 0.5 0.5 0.5 0.5 0.5 0.5 0.5 0.5 0.5 0.5 0.5 0.5 0.5 0.5 0.5 0.5 0.5 0.5 0.5 0.5 0.5 0.5 0.5 0.5 0.5 0.5 0.5 0.5 0.5 0.5 0.5 0.5 0.5 0.5 0.5 0.5 0.5 0.5 0.5 0.5 0.5 0.5 0.5 0.5 0.5 0.5 0.5 0.5 0.5 0.5 0.5 0.5 0.5 0.5 0.5 0.5 0.5 0.5 0.5 0.5 0.5 0.5 0.5 0.5 0.147066 0.852934 0.197024 0.802976 0.0786789 0.9213211 0.589265 0.41073499999999996 0.5 0.5 0.5 0.5 0.5 0.5 0.5 0.5 0.5 0.5 0.5 0.5 0.5 0.5 0.5 0.5 0.5 0.5 0.5 0.5 0.5 0.5 0.5 0.5 0.5 0.5 0.5 0.5 0.5 0.5 0.5 0.5 0.5 0.5 0.5 0.5 0.5 0.5 0.5 0.5 0.5 0.5 0.5 0.5 0.5 0.5 0.5 0.5 0.5 0.5 0.5 0.5 0.514932 0.48506800000000005 0.475622 0.524378 0.807851 0.19214900000000001 0.449927 0.550073 0.0623051 0.9376949 0.599549 0.400451 0.955145 0.04485499999999998 0.716799 0.28320100000000004 0.466639 0.533361 0.464941 0.535059 0.535937 0.464063 0.116955 0.883045 0.5 0.5 0.5 0.5 0.5 0.5 0.5 0.5 0.5 0.5 0.5 0.5 0.5 0.5 0.5 0.5 0.5 0.5 0.5 0.5 0.5 0.5 0.5 0.5 0.5 0.5 0.5 0.5 0.5 0.5 0.5 0.5 0.5 0.5 0.5 0.5 0.5 0.5 0.5 0.5 0.5 0.5 0.5 0.5 0.5 0.5 0.5 0.5 0.5 0.5 0.5 0.5 0.483841 0.516159 0.333511 0.666489 0.590314 0.409686 0.632867 0.36713300000000004 0.5 0.5 0.5 0.5 0.5 0.5 0.5 0.5 0.5 0.5 0.5 0.5 0.5 0.5 0.5 0.5
-1 -101 2 0
-1 101 -2 0
1 -102 2 0
1 102 -2 0
-2 3 0
2 -3 0
-3 -4 0
3 4 0
-4 -107 5 0
-4 107 -5 0
4 -108 5 0
4 108 -5 0
-5 -109 6 0
-5 109 -6 0
5 -110 6 0
5 110 -6 0
-6 -7 0
6 7 0
-7 8 0
7 -8 0
-8 -115 9 0
-8 115 -9 0
8 -116 9 0
8 116 -9 0
-9 10 0
9 -10 0
-1 11 0
1 -11 0
-11 -2 -121 12 0
-11 -2 121 -12 0
-11 2 -122 12 0
-11 2 122 -12 0
11 -2 -123 12 0
11 -2 123 -12 0
11 2 -124 12 0
11 2 124 -12 0
-12 -3 -125 13 0
-12 -3 125 -13 0
-12 3 -126 13 0
-12 3 126 -13 0
12 -3 -127 13 0
12 -3 127 -13 0
12 3 -128 13 0
12 3 128 -13 0
-13 -4 14 0
-13 4 14 0
13 -4 -14 0
13 4 -14 0
-14 -5 15 0
-14 5 -15 0
14 -5 -15 0
14 5 -15 0
-15 -6 -16 0
-15 6 -16 0
15 -6 16 0
15 6 16 0
-16 -7 -17 0
-16 7 17 0
16 -7 -17 0
16 7 17 0
-17 -8 -18 0
-17 8 -18 0
17 -8 18 0
17 8 -18 0
-18 -9 -149 19 0
-18 -9 149 -19 0
-18 9 -150 19 0
-18 9 150 -19 0
18 -9 -151 19 0
18 -9 151 -19 0
18 9 -152 19 0
18 9 152 -19 0
-19 -10 -20 0
-19 10 -20 0
19 -10 20 0
19 10 -20 0
-11 -21 0
11 21 0
-21 -12 -159 22 0
-21 -12 159 -22 0
-21 12 -160 22 0
-21 12 160 -22 0
21 -12 -161 22 0
21 -12 161 -22 0
21 12 -162 22 0
21 12 162 -22 0
-22 -13 23 0
-22 13 23 0
22 -13 -23 0
22 13 23 0
-23 -14 -167 24 0
-23 -14 167 -24 0
-23 14 -168 24 0
-23 14 168 -24 0
23 -14 -169 24 0
23 -14 169 -24 0
23 14 -170 24 0
23 14 170 -24 0
-24 -15 25 0
-24 15 -25 0
24 -15 25 0
24 15 25 0
-25 -16 -175 26 0
-25 -16 175 -26 0
-25 16 -176 26 0
-25 16 176 -26 0
25 -16 -177 26 0
25 -16 177 -26 0
25 16 -178 26 0
25 16 178 -26 0
-26 -17 -27 0
-26 17 27 0
26 -17 -27 0
26 17 -27 0
-27 -18 -28 0
-27 18 28 0
27 -18 28 0
27 18 -28 0
-28 -19 -29 0
-28 19 29 0
28 -19 -29 0
28 19 -29 0
-29 -20 -30 0
-29 20 -30 0
29 -20 30 0
29 20 -30 0
-21 -31 0
21 31 0
-31 -22 -197 32 0
-31 -22 197 -32 0
-31 22 -198 32 0
-31 22 198 -32 0
31 -22 -199 32 0
31 -22 199 -32 0
31 22 -200 32 0
31 22 200 -32 0
-32 -23 -33 0
-32 23 33 0
32 -23 -33 0
32 23 -33 0
-33 -24 34 0
-33 24 -34 0
33 -24 34 0
33 24 -34 0
-34 -25 35 0
-34 25 -35 0
34 -25 35 0
34 25 -35 0
-35 -26 -213 36 0
-35 -26 213 -36 0
-35 26 -214 36 0
-35 26 214 -36 0
35 -26 -215 36 0
35 -26 215 -36 0
35 26 -216 36 0
35 26 216 -36 0
-36 -27 -217 37 0
-36 -27 217 -37 0
-36 27 -218 37 0
-36 27 218 -37 0
36 -27 -219 37 0
36 -27 219 -37 0
36 27 -220 37 0
36 27 220 -37 0
-37 -28 38 0
-37 28 38 0
37 -28 -38 0
37 28 -38 0
-38 -29 -39 0
-38 29 -39 0
38 -29 39 0
38 29 -39 0
-39 -30 -40 0
-39 30 -40 0
39 -30 40 0
39 30 -40 0
-31 -41 0
31 41 0
-41 -32 -42 0
-41 32 -42 0
41 -32 42 0
41 32 -42 0
-42 -33 43 0
-42 33 -43 0
42 -33 43 0
42 33 43 0
-43 -34 -44 0
-43 34 -44 0
43 -34 -44 0
43 34 44 0
-44 -35 -247 45 0
-44 -35 247 -45 0
-44 35 -248 45 0
-44 35 248 -45 0
44 -35 -249 45 0
44 -35 249 -45 0
44 35 -250 45 0
44 35 250 -45 0
-45 -36 46 0
-45 36 46 0
45 -36 46 0
45 36 -46 0
-46 -37 -255 47 0
-46 -37 255 -47 0
-46 37 -256 47 0
-46 37 256 -47 0
46 -37 -257 47 0
46 -37 257 -47 0
46 37 -258 47 0
46 37 258 -47 0
-47 -38 -48 0
-47 38 48 0
47 -38 -48 0
47 38 -48 0
-48 -39 49 0
-48 39 49 0
48 -39 49 0
48 39 -49 0
-49 -40 50 0
-49 40 -50 0
49 -40 -50 0
49 40 -50 0
-41 -51 0
41 51 0
-51 -42 52 0
-51 42 -52 0
51 -42 52 0
51 42 52 0
-52 -43 -277 53 0
-52 -43 277 -53 0
-52 43 -278 53 0
-52 43 278 -53 0
52 -43 -279 53 0
52 -43 279 -53 0
52 43 -280 53 0
52 43 280 -53 0
-53 -44 54 0
-53 44 -54 0
53 -44 -54 0
53 44 -54 0
-54 -45 55 0
-54 45 -55 0
54 -45 55 0
54 45 55 0
-55 -46 -289 56 0
-55 -46 289 -56 0
-55 46 -290 56 0
-55 46 290 -56 0
55 -46 -291 56 0
55 -46 291 -56 0
55 46 -292 56 0
55 46 292 -56 0
-56 -47 -293 57 0
-56 -47 293 -57 0
-56 47 -294 57 0
-56 47 294 -57 0
56 -47 -295 57 0
56 -47 295 -57 0
56 47 -296 57 0
56 47 296 -57 0
-57 -48 -58 0
-57 48 -58 0
57 -48 -58 0
57 48 58 0
-58 -49 -59 0
-58 49 59 0
58 -49 -59 0
58 49 59 0
-59 -50 60 0
-59 50 60 0
59 -50 -60 0
59 50 60 0
-51 -309 61 0
-51 309 -61 0
51 -310 61 0
51 310 -61 0
-61 -52 -311 62 0
-61 -52 311 -62 0
-61 52 -312 62 0
-61 52 312 -62 0
61 -52 -313 62 0
61 -52 313 -62 0
61 52 -314 62 0
61 52 314 -62 0
-62 -53 63 0
-62 53 -63 0
62 -53 -63 0
62 53 -63 0
-63 -54 -319 64 0
-63 -54 319 -64 0
-63 54 -320 64 0
-63 54 320 -64 0
63 -54 -321 64 0
63 -54 321 -64 0
63 54 -322 64 0
63 54 322 -64 0
-64 -55 65 0
-64 55 65 0
64 -55 -65 0
64 55 65 0
-65 -56 -66 0
-65 56 66 0
65 -56 -66 0
65 56 66 0
-66 -57 -67 0
-66 57 -67 0
66 -57 67 0
66 57 67 0
-67 -58 68 0
-67 58 -68 0
67 -58 68 0
67 58 68 0
-68 -59 -69 0
-68 59 69 0
68 -59 -69 0
68 59 -69 0
-69 -60 -343 70 0
-69 -60 343 -70 0
-69 60 -344 70 0
-69 60 344 -70 0
69 -60 -345 70 0
69 -60 345 -70 0
69 60 -346 70 0
69 60 346 -70 0
-61 -347 71 0
-61 347 -71 0
61 -348 71 0
61 348 -71 0
-71 -62 -72 0
-71 62 72 0
71 -62 72 0
71 62 72 0
-72 -63 -73 0
-72 63 73 0
72 -63 -73 0
72 63 -73 0
-73 -64 74 0
-73 64 -74 0
73 -64 -74 0
73 64 74 0
-74 -65 75 0
-74 65 -75 0
74 -65 75 0
74 65 75 0
-75 -66 -76 0
-75 66 -76 0
75 -66 -76 0
75 66 76 0
-76 -67 77 0
-76 67 -77 0
76 -67 77 0
76 67 -77 0
-77 -68 78 0
-77 68 -78 0
77 -68 78 0
77 68 -78 0
-78 -69 -79 0
-78 69 79 0
78 -69 79 0
78 69 -79 0
-79 -70 -381 80 0
-79 -70 381 -80 0
-79 70 -382 80 0
-79 70 382 -80 0
79 -70 -383 80 0
79 -70 383 -80 0
79 70 -384 80 0
79 70 384 -80 0
-71 81 0
71 -81 0
-81 -72 82 0
-81 72 -82 0
81 -72 -82 0
81 72 -82 0
-82 -73 -83 0
-82 73 83 0
82 -73 83 0
82 73 83 0
-83 -74 84 0
-83 74 -84 0
83 -74 -84 0
83 74 -84 0
-84 -75 85 0
-84 75 85 0
84 -75 -85 0
84 75 85 0
-85 -76 -86 0
-85 76 -86 0
85 -76 -86 0
85 76 86 0
-86 -77 -87 0
-86 77 87 0
86 -77 87 0
86 77 -87 0
-87 -78 -411 88 0
-87 -78 411 -88 0
-87 78 -412 88 0
-87 78 412 -88 0
87 -78 -413 88 0
87 -78 413 -88 0
87 78 -414 88 0
87 78 414 -88 0
-88 -79 -415 89 0
-88 -79 415 -89 0
-88 79 -416 89 0
-88 79 416 -89 0
88 -79 -417 89 0
88 -79 417 -89 0
88 79 -418 89 0
88 79 418 -89 0
-89 -80 -419 90 0
-89 -80 419 -90 0
-89 80 -420 90 0
-89 80 420 -90 0
89 -80 -421 90 0
89 -80 421 -90 0
89 80 -422 90 0
89 80 422 -90 0
-81 91 0
81 -91 0
-91 -82 92 0
-91 82 92 0
91 -82 -92 0
91 82 -92 0
-92 -83 -93 0
-92 83 -93 0
92 -83 -93 0
92 83 93 0
-93 -84 94 0
-93 84 -94 0
93 -84 -94 0
93 84 94 0
-94 -85 95 0
-94 85 -95 0
94 -85 95 0
94 85 95 0
-95 -86 96 0
-95 86 -96 0
95 -86 -96 0
95 86 96 0
-96 -87 97 0
-96 87 97 0
96 -87 -97 0
96 87 97 0
-97 -88 -449 98 0
-97 -88 449 -98 0
-97 88 -450 98 0
-97 88 450 -98 0
97 -88 -451 98 0
97 -88 451 -98 0
97 88 -452 98 0
97 88 452 -98 0
-98 -89 -99 0
-98 89 99 0
98 -89 -99 0
98 89 -99 0
-99 -90 -100 0
-99 90 -100 0
99 -90 -100 0
99 90 100 0
100 0
