data/benchmarks/bayes/75-10-9-q.gr
p tw 460 549
12 123
7 17
67 68
99 100
67 77
8 9
25 178
8 18
40 50
14 168
41 42
52 280
73 74
41 51
25 34
73 83
97 449
14 15
14 24
74 75
90 419
36 219
74 84
56 295
15 16
47 48
15 25
12 127
47 57
59 68
48 49
48 58
80 90
32 199
69 346
81 82
35 213
33 42
89 422
81 91
18 151
8 116
54 321
22 23
80 382
84 93
11 121
22 32
21 162
66 75
46 255
55 56
7 16
55 65
58 67
25 177
40 49
22 162
52 279
89 417
79 382
62 311
73 82
45 249
32 41
14 23
79 418
51 310
65 74
55 289
27 218
47 56
47 294
6 15
31 197
3 126
21 22
21 31
24 167
80 89
39 48
32 198
54 55
69 345
78 412
9 151
54 64
89 421
54 320
37 258
87 88
87 97
21 161
28 29
28 38
88 89
88 98
29 30
61 62
61 71
44 247
2 3
16 176
2 12
62 63
37 217
94 95
89 416
79 381
45 248
3 4
35 36
26 216
35 45
95 96
51 309
2 124
36 37
68 69
27 217
68 78
47 293
3 125
69 70
69 79
61 313
78 411
9 150
54 63
89 420
13 22
62 314
88 452
60 344
43 44
54 319
43 53
87 96
46 55
76 77
12 160
28 37
55 292
76 86
23 169
79 88
31 200
24 170
20 29
16 175
70 384
2 11
53 62
43 277
26 215
35 44
47 256
9 10
86 95
2 123
9 19
68 77
27 36
42 43
42 52
61 312
60 69
88 415
44 250
75 76
37 220
9 149
75 85
88 451
16 17
60 343
16 26
80 419
64 322
46 292
49 50
49 59
12 159
23 168
82 83
5 110
82 92
22 199
23 24
70 383
71 348
23 33
83 84
26 178
24 25
56 57
98 450
56 66
47 255
57 58
57 296
89 90
89 99
13 128
87 413
30 40
63 321
31 32
88 414
52 311
35 249
36 214
34 43
19 152
56 290
64 65
12 122
64 321
5 6
67 76
46 291
97 98
8 17
70 346
14 167
5 109
82 91
9 116
22 198
88 418
71 347
6 110
26 177
53 280
36 218
74 83
56 294
98 449
56 65
15 24
12 126
57 295
89 98
13 127
48 57
87 412
63 64
63 73
63 320
4 5
4 14
18 150
8 115
97 452
80 381
22 31
35 248
36 213
90 422
37 38
19 151
56 289
37 47
4 108
12 121
55 64
1 102
70 80
25 176
29 39
11 12
22 161
11 21
70 345
5 108
52 278
62 72
35 216
44 45
44 54
3 13
52 314
11 124
53 279
79 417
36 217
56 293
46 258
36 46
96 97
12 125
18 19
18 28
87 411
32 197
10 20
14 170
69 344
63 319
18 149
97 451
37 257
90 421
21 160
85 86
4 107
88 97
1 101
77 78
25 175
29 38
77 87
22 160
52 277
62 71
89 415
35 215
45 247
51 52
3 12
51 61
11 123
53 278
79 416
46 257
36 45
69 78
10 19
69 343
25 26
89 419
61 348
62 313
25 35
79 384
43 52
37 256
90 420
21 159
17 18
17 27
55 291
27 220
76 85
47 296
31 199
3 128
50 60
77 86
24 169
32 200
83 93
78 414
24 34
84 85
54 322
26 214
84 94
2 122
9 18
57 67
58 59
58 68
42 51
90 100
61 311
44 249
16 178
31 41
91 92
37 219
75 84
89 418
61 347
62 312
79 383
32 33
88 450
45 250
32 42
16 25
43 280
64 74
37 255
5 15
65 66
17 26
65 75
49 58
55 290
27 219
23 167
6 7
47 295
6 16
31 198
3 127
98 99
50 59
24 168
39 40
70 382
39 49
23 32
83 92
78 413
9 152
72 73
60 346
24 33
72 82
26 213
80 422
2 121
57 66
12 162
30 39
90 99
61 310
88 413
44 248
16 177
37 218
88 449
43 279
64 73
64 320
38 39
47 258
5 14
46 290
38 48
71 72
71 81
12 13
9 115
22 197
12 22
61 314
70 381
88 417
6 109
26 176
13 14
45 46
13 23
45 55
60 345
72 81
80 421
2 102
46 47
78 79
46 56
57 294
78 88
12 161
13 126
19 20
23 170
19 29
79 80
79 89
63 72
52 53
61 309
20 30
4 13
88 412
52 62
35 247
53 54
19 150
53 63
37 46
85 95
43 278
98 452
26 27
64 319
26 36
47 257
86 87
46 289
38 47
86 96
70 79
27 28
27 37
70 344
5 107
12 21
60 70
44 53
88 416
1 2
26 175
52 313
80 384
1 11
36 216
93 94
45 54
56 292
80 420
12 124
2 101
18 27
57 293
78 87
13 125
19 28
14 169
22 200
88 411
52 61
97 450
36 220
19 149
85 94
56 296
98 451
12 128
59 60
26 35
59 69
22 159
92 93
87 414
70 343
33 34
63 322
35 214
33 43
18 152
80 383
52 312
53 277
11 122
34 35
79 415
66 67
35 250
36 215
34 44
66 76
56 291
46 256
7 8
